benchmarks/bfuzz0/66752226918518734674126771667930668.smt2
(set-logic QF_FP)
(declare-const x0 (_ FloatingPoint 8 24))
(declare-const x1 (_ FloatingPoint 8 24))
(declare-const x2 (_ FloatingPoint 8 24))
(declare-const x3 (_ FloatingPoint 8 24))
(declare-const x4 (_ FloatingPoint 8 24))
(declare-const x5 (_ FloatingPoint 8 24))
(declare-const x6 (_ FloatingPoint 8 24))
(declare-const x7 (_ FloatingPoint 8 24))
(declare-const x8 (_ FloatingPoint 8 24))
(declare-const x9 (_ FloatingPoint 8 24))
(declare-const x10 (_ FloatingPoint 8 24))
(assert (fp.geq (fp.neg (fp.mul RNE (fp.add RNE (fp.neg x0) (fp.mul RNE x1 x4)) (fp.add RNE (fp.add RNE x7 x2) (fp.add RNE x8 x1)))) (fp.mul RNE (fp.neg (fp.add RNE (fp.sub RNE x8 x8) (fp.div RNE x2 x2))) (fp.neg (fp.neg (fp.mul RNE x6 x4))))))
(assert (fp.geq (fp.add RNE (fp.add RNE (fp.sub RNE (fp.mul RNE x6 x9) (fp.sub RNE x10 x7)) (fp.neg (fp.neg x6))) (fp.add RNE (fp.neg (fp.mul RNE x6 x4)) (fp.div RNE (fp.add RNE x3 x8) (fp.sub RNE x10 x0)))) (fp.div RNE (fp.mul RNE (fp.div RNE (fp.mul RNE x10 x2) (fp.neg x5)) (fp.add RNE (fp.div RNE x3 x10) (fp.add RNE x7 x4))) (fp.mul RNE (fp.add RNE (fp.mul RNE x4 x6) (fp.neg x0)) (fp.neg (fp.sub RNE x5 x7))))))
(assert (fp.gt (fp.sub RNE (fp.add RNE (fp.mul RNE (fp.neg x6) (fp.div RNE x5 x3)) (fp.add RNE (fp.add RNE x4 x10) (fp.add RNE x9 x10))) (fp.neg (fp.div RNE (fp.add RNE x3 x4) (fp.add RNE x3 x0)))) (fp.div RNE (fp.neg (fp.div RNE (fp.div RNE x4 x3) (fp.add RNE x6 x6))) (fp.add RNE (fp.add RNE (fp.mul RNE x6 x7) (fp.div RNE x1 x0)) (fp.sub RNE (fp.add RNE x4 x3) (fp.neg x0))))))
(check-sat)
