db/data/66752226918518734674126771667930668.z3.out
sat
-------------------
1375.967441068
